10J3M/DAT/10J3MUNA-10.dat
10 3
39.0295 1523.3019
39.132 1531.3134
30.1118 906.7205
29.876 892.5754
19.4164 376.9966
7.3085 53.4142
1.1037 1.2182
14.9206 222.6243
6.7578 45.6679
4.6324 21.4591
5575.2915