10J3M/SOL/10J3MUNA-10.sol
solution status: optimal solution found
objective value:                              97.0724
x#1#1                               0.573622795789787 	(obj:0)
x#1#3                               0.426377204210213 	(obj:0)
x#2#1                                               1 	(obj:0)
x#3#2                               0.163384730596412 	(obj:0)
x#3#3                               0.836615269403588 	(obj:0)
x#4#2                                               1 	(obj:0)
x#5#2                                               1 	(obj:0)
x#6#1                                               1 	(obj:0)
x#7#1                                               1 	(obj:0)
x#8#2                                               1 	(obj:0)
x#9#3                                               1 	(obj:0)
x#10#1                                              1 	(obj:0)
z                                             97.0724 	(obj:1)
